36
120
94	1
91	1
90	2
89	1
85	2
79	2
77	2
73	1
69	2
66	3
65	1
62	1
60	1
59	1
53	1
50	1
49	2
47	1
46	2
45	1
40	1
39	1
37	2
36	3
35	1
33	1
30	2
27	1
26	1
24	1
22	1
21	1
20	2
15	1
14	1
13	1
